solution status: optimal solution found
objective value:                     144031.122846928
d11(0,0)                                            1 	(obj:0)
d11(1,1)                                            1 	(obj:0)
d11(2,5)                                            1 	(obj:0)
d11(3,7)                                            1 	(obj:0)
d11(3,8)                                            1 	(obj:0)
d11(3,9)                                            1 	(obj:0)
d11(3,10)                                           1 	(obj:0)
d11(3,11)                                           1 	(obj:0)
d11(3,12)                                           1 	(obj:0)
d11(3,13)                                           1 	(obj:0)
d11(3,14)                                           1 	(obj:0)
d12(1,2)                                            1 	(obj:0)
d12(2,4)                                            1 	(obj:0)
d12(2,6)                                            1 	(obj:0)
d21(3,7)                                            1 	(obj:0)
d21(3,9)                                            1 	(obj:0)
d21(3,11)                                           1 	(obj:0)
WB(2)                                3315.65537776224 	(obj:0)
y2(1,2)                              1385.48851144891 	(obj:0)
y2(2,4)                              1385.48851144895 	(obj:0)
y2(2,6)                              1385.48851144895 	(obj:0)
STE(1,1)                                         8694 	(obj:0)
STE(0,0)                                         9450 	(obj:0)
STE(1,2)                             10010.2140858765 	(obj:0)
STE(2,3)                                         7938 	(obj:0)
STE(2,4)                             9254.21408587651 	(obj:0)
STE(2,5)                             9254.21408587647 	(obj:0)
STE(2,6)                              10570.428171753 	(obj:0)
STE(3,7)                             231.750201111183 	(obj:0)
STE(3,8)                                    1890.0001 	(obj:0)
STE(3,9)                             1547.96428698769 	(obj:0)
STE(3,10)                            3206.21418587651 	(obj:0)
STE(3,11)                            1547.96428698765 	(obj:0)
STE(3,12)                            3206.21418587647 	(obj:0)
STE(3,13)                            2864.17837286416 	(obj:0)
STE(3,14)                            4522.42827175297 	(obj:0)
AVE(2)                               3315.65537776224 	(obj:0)
y1(3,7)                              6255.22481899994 	(obj:0)
y1(3,8)                                    4762.79991 	(obj:0)
y1(3,9)                              6255.22481899994 	(obj:0)
y1(3,10)                                   4762.79991 	(obj:0)
y1(3,11)                             6255.22481899994 	(obj:0)
y1(3,12)                                   4762.79991 	(obj:0)
y1(3,13)                             6255.22481899994 	(obj:0)
y1(3,14)                                   4762.79991 	(obj:0)
AVE(3)                               3315.65799770399 	(obj:0)
WB(1)                                3248.33172520918 	(obj:0)
WG(3)                                3315.65799770399 	(obj:10)
BG(1)                                2673.40993877555 	(obj:10)
BG(2)                                2673.40993877551 	(obj:10)
BG(3)                                5740.63440943884 	(obj:10)
AVE(1)                               3248.33172520918 	(obj:0)
